(set-info :Origin "This instance was generated by: BanditFuzz-- an RL fuzzer for SMT solvers" )
(set-info :Author "Joe Scott, Fed Mora, Vijay Ganesh" )
(set-info :Contact "Joe Scott, joseph.scott@uwaterloo.ca")
(set-logic QF_BV)
(declare-const bool_0 Bool)
(declare-const bool_1 Bool)
(declare-const bool_2 Bool)
(declare-const bool_3 Bool)
(declare-const bool_4 Bool)
(declare-const bv_0 (_ BitVec 32))
(declare-const bv_1 (_ BitVec 32))
(declare-const bv_2 (_ BitVec 32))
(declare-const bv_3 (_ BitVec 32))
(declare-const bv_4 (_ BitVec 32))
(assert (and (=> (=> bool_0 bool_3) (bvsge bv_3 #x67b48fbe )) (bvugt (bvnand #xa3b6c845  #xce5adbc3 ) (bvudiv bv_4 #x6bff50ca ))))
(assert (bvule (bvashr (bvsmod bv_4 #x44b0f889 ) (bvadd bv_3 bv_4)) (bvor (bvnor bv_2 bv_3) (bvxor #x84e15f9d  #xd832f7af ))))
(assert (bvule (bvshl (bvashr bv_2 bv_2) (bvxor #x8ecec6e2  bv_4)) (bvxnor (bvor bv_1 #xce7039b9 ) (bvmul bv_1 bv_0))))
(assert (bvslt (bvmul (bvand bv_2 bv_2) (bvlshr #x29481453  bv_1)) (bvsdiv (bvsmod #xfa5daf1f  #x496c603e ) (bvsub #x01254d79  bv_3))))
(assert (bvsge (bvsub (bvnand bv_2 #xe806e3c4 ) (bvxnor #xef4976f1  #x67e57dac )) (bvxnor (bvnor bv_4 #xa3caa34e ) (bvurem bv_1 #x00c16d20 ))))
(check-sat)
(exit)
